SPARKNaCl/why3-z3/sparknacl.ads_131_21_postcondition2_1.smt2
;; produced by z3_gnatprove.drv ;;
(set-info :smt-lib-version 2.5)
(set-info :source |VC generated by SPARK 2014|)
(set-info :category industrial)
(set-info :status unknown)
;;; generated by SMT-LIB2 driver
;;; SMT-LIB2 driver: bit-vectors, common part
;;; SMT-LIB2: integer arithmetic
(declare-datatypes ()
  ((int__ref (int__refqtmk (int__content Int)))))

(declare-sort integer 0)

;; "integer'int"
(declare-fun integerqtint (integer) Int)

;; "integer'axiom"
(assert
  (forall ((i integer))
    (and
      (<= (- 2147483648) (integerqtint i))
      (<= (integerqtint i) 2147483647))))

;; "in_range"
(define-fun in_range ((x Int)) Bool
  (and (<= (- 2147483648) x) (<= x 2147483647)))

(declare-sort character 0)

;; "in_range"
(define-fun in_range1 ((x Int)) Bool
  (and (<= 0 x) (<= x 255)))

;; "to_rep"
(declare-fun to_rep (character) Int)

;; "of_rep"
(declare-fun of_rep (Int) character)

;; "inversion_axiom"
(assert
  (forall ((x character))
    (! (= (of_rep (to_rep x)) x) :pattern ((to_rep x)) )))

;; "range_axiom"
(assert
  (forall ((x character)) (! (in_range1 (to_rep x)) :pattern ((to_rep x)) )))

;; "coerce_axiom"
(assert
  (forall ((x Int))
    (! (=> (in_range1 x) (= (to_rep (of_rep x)) x)) :pattern ((to_rep
                                                                (of_rep x))) )))

(declare-sort map1 0)

;; "has_bounds"
(declare-fun has_bounds (map1
  Int
  Int) Bool)

;; "get"
(declare-fun get (map1
  Int) character)

;; "in_range"
(define-fun in_range2 ((x Int)) Bool
  (and (<= 1 x) (<= x 2147483647)))

;; "to_rep"
(define-fun to_rep1 ((x integer)) Int
  (integerqtint x))

;; "of_rep"
(declare-fun of_rep1 (Int) integer)

;; "inversion_axiom"
(assert
  (forall ((x integer))
    (! (= (of_rep1 (to_rep1 x)) x) :pattern ((to_rep1 x)) )))

;; "range_axiom"
(assert
  (forall ((x integer)) (! (in_range (to_rep1 x)) :pattern ((to_rep1 x)) )))

;; "coerce_axiom"
(assert
  (forall ((x Int))
    (! (=> (in_range x) (= (to_rep1 (of_rep1 x)) x)) :pattern ((to_rep1
                                                                 (of_rep1 x))) )))

(declare-datatypes ()
  ((t (tqtmk (rec__first integer)(rec__last integer)))))

;; "dynamic_property"
(define-fun dynamic_property ((range_first Int) (range_last Int) (low Int) (high Int)) Bool
  (and
    (in_range low)
    (and
      (in_range high)
      (=> (<= low high) (and (in_range2 low) (in_range2 high))))))

(declare-datatypes ()
  ((us_t (us_tqtmk (elts map1)(rt t)))))

;; "to_array"
(define-fun to_array ((a us_t)) map1
  (elts a))

;; "first"
(define-fun first ((a us_t)) Int
  (to_rep1 (rec__first (rt a))))

;; "last"
(define-fun last ((a us_t)) Int
  (to_rep1 (rec__last (rt a))))

;; "length"
(define-fun length ((a us_t)) Int
  (ite (<= (first a) (last a)) (+ (- (last a) (first a)) 1) 0))

;; "well_formed"
(define-fun well_formed ((a us_t)) Bool
  (has_bounds
    (elts a)
    (to_rep1 (rec__first (rt a)))
    (to_rep1 (rec__last (rt a)))))

;; "dynamic_invariant"
(define-fun dynamic_invariant ((temp___expr_110 us_t) (temp___is_init_106 Bool) (temp___skip_constant_107 Bool) (temp___do_toplevel_108 Bool) (temp___do_typ_inv_109 Bool)) Bool
  (and
    (=>
      (not (= temp___skip_constant_107 true))
      (dynamic_property
        1
        2147483647
        (first temp___expr_110)
        (last temp___expr_110)))
    (well_formed temp___expr_110)))

(declare-sort tinteger_32B 0)

;; "tinteger_32B'int"
(declare-fun tinteger_32Bqtint (tinteger_32B) Int)

;; "tinteger_32B'axiom"
(assert
  (forall ((i tinteger_32B))
    (and
      (<= (- 2147483648) (tinteger_32Bqtint i))
      (<= (tinteger_32Bqtint i) 2147483647))))

;; "in_range"
(define-fun in_range3 ((x Int)) Bool
  (and (<= (- 2147483648) x) (<= x 2147483647)))

(declare-sort byte 0)

;; "to_rep"
(define-fun to_rep2 ((x tinteger_32B)) Int
  (tinteger_32Bqtint x))

;; "of_rep"
(declare-fun of_rep2 (Int) tinteger_32B)

;; "inversion_axiom"
(assert
  (forall ((x tinteger_32B))
    (! (= (of_rep2 (to_rep2 x)) x) :pattern ((to_rep2 x)) )))

;; "range_axiom"
(assert
  (forall ((x tinteger_32B))
    (! (in_range3 (to_rep2 x)) :pattern ((to_rep2 x)) )))

;; "coerce_axiom"
(assert
  (forall ((x Int))
    (! (=> (in_range3 x) (= (to_rep2 (of_rep2 x)) x)) :pattern ((to_rep2
                                                                  (of_rep2 x))) )))

;; "in_range"
(define-fun in_range4 ((x Int)) Bool
  (and (<= 0 x) (<= x 2147483647)))

;; "to_rep"
(declare-fun to_rep3 (byte) (_ BitVec 8))

;; "of_rep"
(declare-fun of_rep3 ((_ BitVec 8)) byte)

;; "inversion_axiom"
(assert
  (forall ((x byte)) (! (= (of_rep3 (to_rep3 x)) x) :pattern ((to_rep3 x)) )))

;; "range_axiom"
(assert true)

;; "coerce_axiom"
(assert
  (forall ((x (_ BitVec 8)))
    (! (= (to_rep3 (of_rep3 x)) x) :pattern ((to_rep3 (of_rep3 x))) )))

(declare-sort map2 0)

(declare-datatypes ()
  ((map__ref (map__refqtmk (map__content map2)))))

;; "has_bounds"
(declare-fun has_bounds1 (map2
  Int
  Int) Bool)

;; "get"
(declare-fun get1 (map2
  Int) byte)

;; "set"
(declare-fun set (map2
  Int
  byte) map2)

;; "set_eq"
(assert
  (forall ((a map2) (i Int) (v byte))
    (! (= (get1 (set a i v) i) v) :pattern ((set a i v)) )))

;; "set_neq"
(assert
  (forall ((a map2) (i Int) (v byte))
    (! (forall ((j Int))
         (! (=> (not (= i j)) (= (get1 (set a i v) j) (get1 a j))) :pattern (
         (get1
           a
           j)) :pattern ((get1 (set a i v) j)) )) :pattern ((set a i v)) )))

;; "set_has_bounds"
(assert
  (forall ((a map2) (i Int) (f Int) (l Int) (v byte))
    (! (=>
         (and (<= f i) (<= i l))
         (=> (has_bounds1 a f l) (has_bounds1 (set a i v) f l))) :pattern (
    (has_bounds1
      (set a i v)
      f
      l)) )))

(declare-datatypes ()
  ((t1 (tqtmk1 (rec__first1 tinteger_32B)(rec__last1 tinteger_32B)))))

;; "mk"
(declare-fun mk (Int
  Int) t1)

;; "mk_def"
(assert
  (forall ((f Int) (l Int))
    (! (=>
         (in_range3 f)
         (=>
           (in_range3 l)
           (and
             (= (to_rep2 (rec__first1 (mk f l))) f)
             (= (to_rep2 (rec__last1 (mk f l))) l)))) :pattern ((mk f l)) )))

;; "dynamic_property"
(define-fun dynamic_property1 ((range_first Int) (range_last Int) (low Int) (high Int)) Bool
  (and
    (in_range3 low)
    (and
      (in_range3 high)
      (=> (<= low high) (and (in_range4 low) (in_range4 high))))))

(declare-datatypes ()
  ((us_t1 (us_tqtmk1 (elts1 map2)(rt1 t1)))))

;; "to_array"
(define-fun to_array1 ((a us_t1)) map2
  (elts1 a))

;; "of_array"
(define-fun of_array ((a map2) (f Int) (l Int)) us_t1
  (us_tqtmk1 a (mk f l)))

;; "first"
(define-fun first1 ((a us_t1)) Int
  (to_rep2 (rec__first1 (rt1 a))))

;; "last"
(define-fun last1 ((a us_t1)) Int
  (to_rep2 (rec__last1 (rt1 a))))

;; "well_formed"
(define-fun well_formed1 ((a us_t1)) Bool
  (has_bounds1
    (elts1 a)
    (to_rep2 (rec__first1 (rt1 a)))
    (to_rep2 (rec__last1 (rt1 a)))))

(declare-datatypes ()
  ((byte_seq__ref (byte_seq__refqtmk (byte_seq__content us_t1)))))

(declare-const s us_t)

(declare-const ret__first tinteger_32B)

(declare-const ret__last tinteger_32B)

;; "dynamic_invariant"
(define-fun dynamic_invariant1 ((temp___expr_1337 us_t1) (temp___is_init_1333 Bool) (temp___skip_constant_1334 Bool) (temp___do_toplevel_1335 Bool) (temp___do_typ_inv_1336 Bool)) Bool
  (and
    (=>
      (not (= temp___skip_constant_1334 true))
      (and
        (and
          (dynamic_property1
            0
            (- (length s) 1)
            (first1 temp___expr_1337)
            (last1 temp___expr_1337))
          (= (first1 temp___expr_1337) 0))
        (= (last1 temp___expr_1337) (- (length s) 1))))
    (well_formed1 temp___expr_1337)))

;; "default_initial_assumption"
(define-fun default_initial_assumption ((temp___expr_1339 us_t1) (temp___skip_top_level_1340 Bool)) Bool
  (and
    (= (first1 temp___expr_1339) 0)
    (= (last1 temp___expr_1339) (- (length s) 1))))

(declare-const ret map2)

;; "ret'unused"
(define-fun retqtunused () map__ref
  (map__refqtmk ret))

;; "Assume"
(assert (dynamic_invariant s true false true true))

;; "Assume"
(assert (<= 1 (length s)))

;; "Assume"
(assert
  (default_initial_assumption
    (of_array ret (to_rep2 ret__first) (to_rep2 ret__last))
    false))

;; "Assume"
(assert
  (dynamic_invariant1
    (of_array ret (to_rep2 ret__first) (to_rep2 ret__last))
    false
    false
    true
    true))

(declare-const ret1 map2)

;; "ret'unused"
(define-fun retqtunused1 () map__ref
  (map__refqtmk ret1))

(declare-const o Int)

;; "Ensures"
(assert (= (to_rep2 ret__last) o))

(declare-const to_repqtresultqtunused Int)

;; "H"
(assert (= to_repqtresultqtunused o))

(declare-const o1 Int)

;; "Ensures"
(assert (= (to_rep2 ret__first) o1))

(declare-const to_repqtresultqtunused1 Int)

;; "H"
(assert (= to_repqtresultqtunused1 o1))

(declare-const map__contentqtresultqtunused map2)

;; "H"
(assert (= map__contentqtresultqtunused ret))

(declare-const of_arrayqtresultqtunused us_t1)

;; "H"
(assert (= of_arrayqtresultqtunused (of_array ret o1 o)))

(declare-const temp___1454 Int)

;; "Ensures"
(assert (= (to_rep2 ret__last) temp___1454))

(declare-const to_repqtresultqtunused2 Int)

;; "H"
(assert (= to_repqtresultqtunused2 temp___1454))

(declare-const i Int)

(declare-const iqtunused int__ref)

;; "H"
(assert (= iqtunused (int__refqtmk i)))

;; "H"
(assert (= i 0))

(declare-const int__contentqtresultqtunused Int)

;; "H"
(assert (= int__contentqtresultqtunused i))

(declare-const o2 Bool)

;; "H"
(assert (= o2 (ite (<= i temp___1454) true false)))

(declare-const infix_lseqqtresultqtunused Bool)

;; "H"
(assert (= infix_lseqqtresultqtunused o2))

(declare-const int__contentqtresultqtunused1 Int)

;; "H"
(assert (= int__contentqtresultqtunused1 i))

(declare-const o3 Bool)

;; "H"
(assert (= o3 (ite (<= 0 i) true false)))

(declare-const infix_lseqqtresultqtunused1 Bool)

;; "H"
(assert (= infix_lseqqtresultqtunused1 o3))

(declare-const o4 Bool)

;; "H"
(assert (= o4 (and o3 o2)))

(declare-const andbqtresultqtunused Bool)

;; "H"
(assert (= andbqtresultqtunused o4))

(declare-const o5 Int)

(declare-const to_repqtresultqtunused3 Int)

(declare-const o6 Int)

(declare-const to_repqtresultqtunused4 Int)

(declare-const map__contentqtresultqtunused1 map2)

(declare-const temp___loop_entry_1461 us_t1)

(declare-const of_arrayqtresultqtunused1 us_t1)

(declare-const ret2 map2)

(declare-const i1 Int)

(declare-const iqtunused1 int__ref)

(declare-const retqtunused2 map__ref)

(declare-const o7 Int)

(declare-const to_repqtresultqtunused5 Int)

(declare-const o8 Int)

(declare-const to_repqtresultqtunused6 Int)

(declare-const map__contentqtresultqtunused2 map2)

(declare-const temp___1457 us_t1)

(declare-const of_arrayqtresultqtunused2 us_t1)

(declare-const o9 t1)

(declare-const rtqtresultqtunused t1)

(declare-const int__contentqtresultqtunused2 Int)

(declare-const o10 Int)

(declare-const firstqtresultqtunused Int)

(declare-const o11 Int)

(declare-const infix_plqtresultqtunused Int)

(declare-const range_check_qtresultqtunused Int)

(declare-const o12 map1)

(declare-const to_arrayqtresultqtunused map1)

(declare-const o13 character)

(declare-const getqtresultqtunused character)

(declare-const o14 Int)

(declare-const to_repqtresultqtunused7 Int)

(declare-const o15 (_ BitVec 8))

(declare-const of_intqtresultqtunused (_ BitVec 8))

(declare-const o16 byte)

(declare-const of_repqtresultqtunused byte)

(declare-const int__contentqtresultqtunused3 Int)

(declare-const o17 map2)

(declare-const to_arrayqtresultqtunused1 map2)

(declare-const o18 map2)

(declare-const setqtresultqtunused map2)

(declare-const o19 us_t1)

(declare-const us_tqtmkqtresultqtunused us_t1)

(declare-const o20 map2)

(declare-const to_arrayqtresultqtunused2 map2)

(declare-const int__contentqtresultqtunused4 Int)

(declare-const infix_eqqtresultqtunused Bool)

;; "H"
(assert
  (ite (= o4 true)
    (and
      (= (to_rep2 ret__last) o5)
      (and
        (= to_repqtresultqtunused3 o5)
        (and
          (= (to_rep2 ret__first) o6)
          (and
            (= to_repqtresultqtunused4 o6)
            (and
              (= map__contentqtresultqtunused1 ret)
              (and
                (= temp___loop_entry_1461 (of_array ret o6 o5))
                (and
                  (= of_arrayqtresultqtunused1 temp___loop_entry_1461)
                  (and
                    (= iqtunused1 (int__refqtmk i1))
                    (and
                      (= retqtunused2 (map__refqtmk ret2))
                      (and
                        (= (and (ite (and
                                       (dynamic_invariant1
                                         (of_array
                                           ret2
                                           (to_rep2 ret__first)
                                           (to_rep2 ret__last))
                                         false
                                         true
                                         true
                                         true)
                                       (forall ((temp___1462 Int))
                                         (=>
                                           (and
                                             (<= (to_rep2 ret__first) temp___1462)
                                             (<= temp___1462 (to_rep2
                                                               ret__last)))
                                           (=>
                                             (or
                                               (< temp___1454 temp___1462)
                                               (or
                                                 (< temp___1462 0)
                                                 (<= i1 temp___1462)))
                                             (= (get1 ret2 temp___1462) 
                                             (get1
                                               ret
                                               temp___1462))))))
                                  true
                                  false) (ite (and
                                                (<= 0 i1)
                                                (<= i1 (to_rep2 ret__last)))
                                           true
                                           false)) true)
                        (and
                          (= (to_rep2 ret__last) o7)
                          (and
                            (= to_repqtresultqtunused5 o7)
                            (and
                              (= (to_rep2 ret__first) o8)
                              (and
                                (= to_repqtresultqtunused6 o8)
                                (and
                                  (= map__contentqtresultqtunused2 ret2)
                                  (and
                                    (= temp___1457 (of_array ret2 o8 o7))
                                    (and
                                      (= of_arrayqtresultqtunused2 temp___1457)
                                      (and
                                        (= o9 (rt1 temp___1457))
                                        (and
                                          (= rtqtresultqtunused o9)
                                          (and
                                            (= int__contentqtresultqtunused2 
                                            i1)
                                            (and
                                              (= o10 (first s))
                                              (and
                                                (= firstqtresultqtunused 
                                                o10)
                                                (and
                                                  (= o11 (+ o10 i1))
                                                  (and
                                                    (= infix_plqtresultqtunused 
                                                    o11)
                                                    (and
                                                      (in_range o11)
                                                      (and
                                                        (= range_check_qtresultqtunused 
                                                        o11)
                                                        (and
                                                          (and
                                                            (<= (first s) 
                                                            o11)
                                                            (<= o11 (last s)))
                                                          (and
                                                            (= o12 (to_array
                                                                    s))
                                                            (and
                                                              (= to_arrayqtresultqtunused 
                                                              o12)
                                                              (and
                                                                (= o13 
                                                                (get
                                                                  o12
                                                                  o11))
                                                                (and
                                                                  (= 
                                                                  getqtresultqtunused 
                                                                  o13)
                                                                  (and
                                                                    (= 
                                                                    (to_rep
                                                                    o13) 
                                                                    o14)
                                                                    (and
                                                                    (= 
                                                                    to_repqtresultqtunused7 
                                                                    o14)
                                                                    (and
                                                                    (= 
                                                                    o15 ((_ int2bv 8) 
                                                                    o14))
                                                                    (and
                                                                    (= 
                                                                    of_intqtresultqtunused 
                                                                    o15)
                                                                    (and
                                                                    (= 
                                                                    (to_rep3
                                                                    o16) 
                                                                    o15)
                                                                    (and
                                                                    (= 
                                                                    of_repqtresultqtunused 
                                                                    o16)
                                                                    (and
                                                                    (= 
                                                                    int__contentqtresultqtunused3 
                                                                    i1)
                                                                    (and
                                                                    (and
                                                                    (<= 
                                                                    o8 
                                                                    i1)
                                                                    (<= 
                                                                    i1 
                                                                    o7))
                                                                    (and
                                                                    (= 
                                                                    o17 
                                                                    ret2)
                                                                    (and
                                                                    (= 
                                                                    to_arrayqtresultqtunused1 
                                                                    o17)
                                                                    (and
                                                                    (= 
                                                                    o18 
                                                                    (set
                                                                    o17
                                                                    i1
                                                                    o16))
                                                                    (and
                                                                    (= 
                                                                    setqtresultqtunused 
                                                                    o18)
                                                                    (and
                                                                    (= 
                                                                    o19 
                                                                    (us_tqtmk1
                                                                    o18
                                                                    o9))
                                                                    (and
                                                                    (= 
                                                                    us_tqtmkqtresultqtunused 
                                                                    o19)
                                                                    (and
                                                                    (= 
                                                                    o20 
                                                                    (to_array1
                                                                    o19))
                                                                    (and
                                                                    (= 
                                                                    to_arrayqtresultqtunused2 
                                                                    o20)
                                                                    (and
                                                                    (= 
                                                                    ret1 
                                                                    o20)
                                                                    (and
                                                                    (= 
                                                                    int__contentqtresultqtunused4 
                                                                    i1)
                                                                    (and
                                                                    (= 
                                                                    infix_eqqtresultqtunused 
                                                                    (ite (= 
                                                                    i1 
                                                                    temp___1454)
                                                                    true
                                                                    false))
                                                                    (= 
                                                                    i1 
                                                                    temp___1454)))))))))))))))))))))))))))))))))))))))))))))))))))
    (= ret1 ret)))

(declare-const o21 Int)

;; "Ensures"
(assert (= (to_rep2 ret__last) o21))

;; "to_rep'result'unused"
(define-fun to_repqtresultqtunused8 () Int
  o21)

(declare-const o22 Int)

;; "Ensures"
(assert (= (to_rep2 ret__first) o22))

;; "to_rep'result'unused"
(define-fun to_repqtresultqtunused9 () Int
  o22)

;; "map__content'result'unused"
(define-fun map__contentqtresultqtunused3 () map2
  ret1)

;; "temp___1465"
(define-fun temp___1465 () us_t1
  (of_array ret1 o22 o21))

;; "of_array'result'unused"
(define-fun of_arrayqtresultqtunused3 () us_t1
  temp___1465)

;; "temp___1466"
(define-fun temp___1466 () map2
  ret1)

;; "to_array'result'unused"
(define-fun to_arrayqtresultqtunused3 () map2
  temp___1466)

;; "o"
(define-fun o23 () Int
  o21)

;; "last'result'unused"
(define-fun lastqtresultqtunused () Int
  o23)

;; "o"
(define-fun o24 () Int
  o22)

;; "first'result'unused"
(define-fun firstqtresultqtunused1 () Int
  o24)

;; "o"
(define-fun o25 () us_t1
  (of_array temp___1466 o24 o23))

;; "of_array'result'unused"
(define-fun of_arrayqtresultqtunused4 () us_t1
  o25)

(declare-const sparknacl__to_byte_seq__result us_t1)

;; "sparknacl__to_byte_seq__result'unused"
(define-fun sparknacl__to_byte_seq__resultqtunused () byte_seq__ref
  (byte_seq__refqtmk sparknacl__to_byte_seq__result))

;; "H"
(assert (= sparknacl__to_byte_seq__result o25))

;; "result'unused"
(define-fun resultqtunused () us_t1
  sparknacl__to_byte_seq__result)

;; "byte_seq__content'result'unused"
(define-fun byte_seq__contentqtresultqtunused () us_t1
  sparknacl__to_byte_seq__result)

;; Goal "def'vc"
;; File "sparknacl.ads", line 128, characters 0-0
(assert
  (not (= (first1 sparknacl__to_byte_seq__result) 0)))

(check-sat)
